c Sudoku solution
p cnf 729 0
136 0
254 0
263 0
315 0
368 0
371 0
382 0
397 0
425 0
451 0
493 0
518 0
587 0
627 0
643 0
665 0
699 0
822 0
831 0
869 0
888 0
914 0
942 0
976 0
129 0
575 0
877 0
484 0
634 0
324 0
333 0
523 0
611 0
416 0
591 0
686 0
221 0
238 0
212 0
117 0
247 0
279 0
813 0
928 0
726 0
719 0
989 0
953 0
467 0
757 0
961 0
764 0
748 0
894 0
735 0
937 0
995 0
141 0
162 0
155 0
544 0
845 0
856 0
346 0
359 0
449 0
658 0
478 0
672 0
432 0
539 0
552 0
566 0
773 0
792 0
781 0
183 0
174 0
198 0
285 0
296 0
